p cnf 51 485
-50 -44 0
-46 -38 0
-43 -37 0
-49 -37 0
-49 -43 0
-39 -31 0
-47 -31 0
-47 -39 0
-36 -30 0
-42 -30 0
-42 -36 0
-48 -30 0
-48 -36 0
-48 -42 0
-32 -24 0
-40 -24 0
-40 -32 0
-48 -24 0
-48 -32 0
-48 -40 0
-29 -23 0
-35 -23 0
-35 -29 0
-41 -23 0
-41 -29 0
-41 -35 0
-47 -23 0
-47 -29 0
-47 -35 0
-47 -41 0
-25 -17 0
-33 -17 0
-33 -25 0
-41 -17 0
-41 -25 0
-41 -33 0
-49 -17 0
-49 -25 0
-49 -33 0
-49 -41 0
-22 -16 0
-28 -16 0
-28 -22 0
-34 -16 0
-34 -22 0
-34 -28 0
-40 -16 0
-40 -22 0
-40 -28 0
-40 -34 0
-46 -16 0
-46 -22 0
-46 -28 0
-46 -34 0
-46 -40 0
-18 -10 0
-26 -10 0
-26 -18 0
-34 -10 0
-34 -18 0
-34 -26 0
-42 -10 0
-42 -18 0
-42 -26 0
-42 -34 0
-50 -10 0
-50 -18 0
-50 -26 0
-50 -34 0
-50 -42 0
-15 -9 0
-21 -9 0
-21 -15 0
-27 -9 0
-27 -15 0
-27 -21 0
-33 -9 0
-33 -15 0
-33 -21 0
-33 -27 0
-39 -9 0
-39 -15 0
-39 -21 0
-39 -27 0
-39 -33 0
-45 -9 0
-45 -15 0
-45 -21 0
-45 -27 0
-45 -33 0
-45 -39 0
-14 -8 0
-20 -8 0
-20 -14 0
-26 -8 0
-26 -14 0
-26 -20 0
-32 -8 0
-32 -14 0
-32 -20 0
-32 -26 0
-38 -8 0
-38 -14 0
-38 -20 0
-38 -26 0
-38 -32 0
-16 -8 0
-13 -7 0
-19 -7 0
-19 -13 0
-25 -7 0
-25 -13 0
-25 -19 0
-31 -7 0
-31 -13 0
-31 -19 0
-31 -25 0
-15 -7 0
-23 -7 0
-23 -15 0
-12 -6 0
-18 -6 0
-18 -12 0
-24 -6 0
-24 -12 0
-24 -18 0
-14 -6 0
-22 -6 0
-22 -14 0
-30 -6 0
-30 -14 0
-30 -22 0
-11 -5 0
-17 -5 0
-17 -11 0
-13 -5 0
-21 -5 0
-21 -13 0
-29 -5 0
-29 -13 0
-29 -21 0
-37 -5 0
-37 -13 0
-37 -21 0
-37 -29 0
-10 -4 0
-12 -4 0
-20 -4 0
-20 -12 0
-28 -4 0
-28 -12 0
-28 -20 0
-36 -4 0
-36 -12 0
-36 -20 0
-36 -28 0
-44 -4 0
-44 -12 0
-44 -20 0
-44 -28 0
-44 -36 0
-11 -3 0
-19 -3 0
-19 -11 0
-27 -3 0
-27 -11 0
-27 -19 0
-35 -3 0
-35 -11 0
-35 -19 0
-35 -27 0
-43 -3 0
-43 -11 0
-43 -19 0
-43 -27 0
-43 -35 0
-51 -3 0
-51 -11 0
-51 -19 0
-51 -27 0
-51 -35 0
-51 -43 0
51 44 37 30 23 16 9 0
-16 -9 0
-23 -9 0
-23 -16 0
-30 -9 0
-30 -16 0
-30 -23 0
-37 -9 0
-37 -16 0
-37 -23 0
-37 -30 0
-44 -9 0
-44 -16 0
-44 -23 0
-44 -30 0
-44 -37 0
-51 -9 0
-51 -16 0
-51 -23 0
-51 -30 0
-51 -37 0
-51 -44 0
50 43 36 29 22 15 8 0
-15 -8 0
-22 -8 0
-22 -15 0
-29 -8 0
-29 -15 0
-29 -22 0
-36 -8 0
-36 -15 0
-36 -22 0
-36 -29 0
-43 -8 0
-43 -15 0
-43 -22 0
-43 -29 0
-43 -36 0
-50 -8 0
-50 -15 0
-50 -22 0
-50 -29 0
-50 -36 0
-50 -43 0
49 42 35 28 21 14 7 0
-14 -7 0
-21 -7 0
-21 -14 0
-28 -7 0
-28 -14 0
-28 -21 0
-35 -7 0
-35 -14 0
-35 -21 0
-35 -28 0
-42 -7 0
-42 -14 0
-42 -21 0
-42 -28 0
-42 -35 0
-49 -7 0
-49 -14 0
-49 -21 0
-49 -28 0
-49 -35 0
-49 -42 0
48 41 34 27 20 13 6 0
-13 -6 0
-20 -6 0
-20 -13 0
-27 -6 0
-27 -13 0
-27 -20 0
-34 -6 0
-34 -13 0
-34 -20 0
-34 -27 0
-41 -6 0
-41 -13 0
-41 -20 0
-41 -27 0
-41 -34 0
-48 -6 0
-48 -13 0
-48 -20 0
-48 -27 0
-48 -34 0
-48 -41 0
47 40 33 26 19 12 5 0
-12 -5 0
-19 -5 0
-19 -12 0
-26 -5 0
-26 -12 0
-26 -19 0
-33 -5 0
-33 -12 0
-33 -19 0
-33 -26 0
-40 -5 0
-40 -12 0
-40 -19 0
-40 -26 0
-40 -33 0
-47 -5 0
-47 -12 0
-47 -19 0
-47 -26 0
-47 -33 0
-47 -40 0
46 39 32 25 18 11 4 0
-11 -4 0
-18 -4 0
-18 -11 0
-25 -4 0
-25 -11 0
-25 -18 0
-32 -4 0
-32 -11 0
-32 -18 0
-32 -25 0
-39 -4 0
-39 -11 0
-39 -18 0
-39 -25 0
-39 -32 0
-46 -4 0
-46 -11 0
-46 -18 0
-46 -25 0
-46 -32 0
-46 -39 0
45 38 31 24 17 10 3 0
-10 -3 0
-17 -3 0
-17 -10 0
-24 -3 0
-24 -10 0
-24 -17 0
-31 -3 0
-31 -10 0
-31 -17 0
-31 -24 0
-38 -3 0
-38 -10 0
-38 -17 0
-38 -24 0
-38 -31 0
-45 -3 0
-45 -10 0
-45 -17 0
-45 -24 0
-45 -31 0
-45 -38 0
-50 -51 0
-49 -51 0
-49 -50 0
-48 -51 0
-48 -50 0
-48 -49 0
-47 -51 0
-47 -50 0
-47 -49 0
-47 -48 0
-46 -51 0
-46 -50 0
-46 -49 0
-46 -48 0
-46 -47 0
-45 -51 0
-45 -50 0
-45 -49 0
-45 -48 0
-45 -47 0
-45 -46 0
-43 -44 0
-42 -44 0
-42 -43 0
-41 -44 0
-41 -43 0
-41 -42 0
-40 -44 0
-40 -43 0
-40 -42 0
-40 -41 0
-39 -44 0
-39 -43 0
-39 -42 0
-39 -41 0
-39 -40 0
-38 -44 0
-38 -43 0
-38 -42 0
-38 -41 0
-38 -40 0
-38 -39 0
-36 -37 0
-35 -37 0
-35 -36 0
-34 -37 0
-34 -36 0
-34 -35 0
-33 -37 0
-33 -36 0
-33 -35 0
-33 -34 0
-32 -37 0
-32 -36 0
-32 -35 0
-32 -34 0
-32 -33 0
-31 -37 0
-31 -36 0
-31 -35 0
-31 -34 0
-31 -33 0
-31 -32 0
-29 -30 0
-28 -30 0
-28 -29 0
-27 -30 0
-27 -29 0
-27 -28 0
-26 -30 0
-26 -29 0
-26 -28 0
-26 -27 0
-25 -30 0
-25 -29 0
-25 -28 0
-25 -27 0
-25 -26 0
-24 -30 0
-24 -29 0
-24 -28 0
-24 -27 0
-24 -26 0
-24 -25 0
-22 -23 0
-21 -23 0
-21 -22 0
-20 -23 0
-20 -22 0
-20 -21 0
-19 -23 0
-19 -22 0
-19 -21 0
-19 -20 0
-18 -23 0
-18 -22 0
-18 -21 0
-18 -20 0
-18 -19 0
-17 -23 0
-17 -22 0
-17 -21 0
-17 -20 0
-17 -19 0
-17 -18 0
-15 -16 0
-14 -16 0
-14 -15 0
-13 -16 0
-13 -15 0
-13 -14 0
-12 -16 0
-12 -15 0
-12 -14 0
-12 -13 0
-11 -16 0
-11 -15 0
-11 -14 0
-11 -13 0
-11 -12 0
-10 -16 0
-10 -15 0
-10 -14 0
-10 -13 0
-10 -12 0
-10 -11 0
-8 -9 0
-7 -9 0
-7 -8 0
-6 -9 0
-6 -8 0
-6 -7 0
-5 -9 0
-5 -8 0
-5 -7 0
-5 -6 0
-4 -9 0
-4 -8 0
-4 -7 0
-4 -6 0
-4 -5 0
-3 -9 0
-3 -8 0
-3 -7 0
-3 -6 0
-3 -5 0
-3 -4 0
1 0
-2 0
